(set-logic QF_NRA)
(set-info :source |Benchmarks generated from hycomp (https://es-static.fbk.eu/tools/hycomp/). BMC instances of non-linear hybrid automata taken from: Alessandro Cimatti, Sergio Mover, Stefano Tonetta, A quantifier-free SMT encoding of non-linear hybrid automata, FMCAD 2012 and Alessandro Cimatti, Sergio Mover, Stefano Tonetta, Quantier-free encoding of invariants for Hybrid Systems, Formal Methods in System Design. This instance solves a BMC problem of depth 2 and uses the quantifier free encoding with lemmas encoding. Contacts: Sergio Mover (mover@fbk.eu), Stefano Tonetta (tonettas@fbk.eu), Alessandro Cimatti (cimatti@fbk.eu).|)
(set-info :smt-lib-version 2.0)
(set-info :category "industrial")
(set-info :status unsat)
;; MathSAT API call trace
;; generated on Mon Mar 19 10:37:49 2012
(declare-fun b.counter.1__AT2 () Bool)
(declare-fun b.EVENT.1__AT2 () Bool)
(declare-fun b.counter.2__AT2 () Bool)
(declare-fun b.speed_x__AT1 () Real)
(declare-fun b.counter.3__AT2 () Bool)
(declare-fun b.time__AT1 () Real)
(declare-fun b.bool_atom__AT2 () Bool)
(declare-fun b.x__AT1 () Real)
(declare-fun b.speed_x__AT2 () Real)
(declare-fun b.event_is_timed__AT1 () Bool)
(declare-fun b.counter.0__AT1 () Bool)
(declare-fun b.EVENT.1__AT0 () Bool)
(declare-fun b.speed_loss__AT0 () Real)
(declare-fun b.speed_y__AT2 () Real)
(declare-fun b.counter.1__AT1 () Bool)
(declare-fun b.speed_x__AT0 () Real)
(declare-fun b.counter.2__AT1 () Bool)
(declare-fun b.time__AT0 () Real)
(declare-fun b.counter.2__AT0 () Bool)
(declare-fun b.counter.3__AT1 () Bool)
(declare-fun b.bool_atom__AT1 () Bool)
(declare-fun b.x__AT0 () Real)
(declare-fun b.speed_y__AT1 () Real)
(declare-fun b.delta__AT1 () Real)
(declare-fun b.bool_atom__AT0 () Bool)
(declare-fun b.y__AT0 () Real)
(declare-fun b.EVENT.1__AT1 () Bool)
(declare-fun b.EVENT.0__AT1 () Bool)
(declare-fun b.counter.0__AT0 () Bool)
(declare-fun b.delta__AT0 () Real)
(declare-fun b.counter.1__AT0 () Bool)
(declare-fun b.y__AT1 () Real)
(declare-fun b.EVENT.0__AT0 () Bool)
(declare-fun b.event_is_timed__AT2 () Bool)
(declare-fun b.speed_y__AT0 () Real)
(declare-fun b.event_is_timed__AT0 () Bool)
(declare-fun b.time__AT2 () Real)
(declare-fun b.y__AT2 () Real)
(declare-fun b.delta__AT2 () Real)
(declare-fun b.counter.0__AT2 () Bool)
(declare-fun b.x__AT2 () Real)
(declare-fun b.EVENT.0__AT2 () Bool)
(declare-fun b.counter.3__AT0 () Bool)
(assert (let ((.def_738 (* (- 1.0) b.speed_x__AT2)))
(let ((.def_739 (* b.speed_x__AT2 .def_738)))
(let ((.def_740 (* (- 1.0) .def_739)))
(let ((.def_768 (* 2.0 .def_740)))
(let ((.def_826 (* (- 1.0) .def_768)))
(let ((.def_827 (* b.delta__AT2 .def_826)))
(let ((.def_828 (* (- 5.0) .def_827)))
(let ((.def_670 (* (- 1.0) b.x__AT2)))
(let ((.def_751 (* b.speed_x__AT2 .def_670)))
(let ((.def_773 (* (- 5.0) .def_751)))
(let ((.def_833 (+ .def_773 .def_828)))
(let ((.def_746 (* b.x__AT2 .def_738)))
(let ((.def_771 (* (- 5.0) .def_746)))
(let ((.def_834 (+ .def_771 .def_833)))
(let ((.def_775 (* (- 49.0) b.delta__AT2)))
(let ((.def_835 (+ .def_775 .def_834)))
(let ((.def_777 (* 5.0 b.speed_y__AT2)))
(let ((.def_836 (+ .def_777 .def_835)))
(let ((.def_839 (<= 0.0 .def_836)))
(let ((.def_846 (not .def_839)))
(let ((.def_752 (* (- 1.0) .def_751)))
(let ((.def_747 (* (- 1.0) .def_746)))
(let ((.def_785 (+ .def_747 .def_752)))
(let ((.def_786 (+ b.speed_y__AT2 .def_785)))
(let ((.def_787 (<= 0.0 .def_786)))
(let ((.def_847 (or .def_787 .def_846)))
(let ((.def_837 (<= .def_836 0.0 )))
(let ((.def_801 (<= .def_786 0.0 )))
(let ((.def_802 (not .def_801)))
(let ((.def_845 (or .def_802 .def_837)))
(let ((.def_848 (and .def_845 .def_847)))
(let ((.def_817 (<= .def_739 (- (/ 49 10)))))
(let ((.def_849 (or .def_817 .def_848)))
(let ((.def_841 (not .def_837)))
(let ((.def_842 (or .def_801 .def_841)))
(let ((.def_788 (not .def_787)))
(let ((.def_840 (or .def_788 .def_839)))
(let ((.def_843 (and .def_840 .def_842)))
(let ((.def_822 (<= (- (/ 49 10)) .def_739)))
(let ((.def_844 (or .def_822 .def_843)))
(let ((.def_850 (and .def_844 .def_849)))
(let ((.def_838 (and .def_801 .def_837)))
(let ((.def_851 (and .def_838 .def_850)))
(let ((.def_769 (* b.delta__AT2 .def_768)))
(let ((.def_770 (* 5.0 .def_769)))
(let ((.def_779 (+ .def_773 .def_770)))
(let ((.def_780 (+ .def_771 .def_779)))
(let ((.def_781 (+ .def_775 .def_780)))
(let ((.def_782 (+ .def_777 .def_781)))
(let ((.def_799 (<= .def_782 0.0 )))
(let ((.def_800 (not .def_799)))
(let ((.def_820 (or .def_800 .def_801)))
(let ((.def_783 (<= 0.0 .def_782)))
(let ((.def_819 (or .def_783 .def_788)))
(let ((.def_821 (and .def_819 .def_820)))
(let ((.def_823 (or .def_821 .def_822)))
(let ((.def_784 (not .def_783)))
(let ((.def_815 (or .def_784 .def_787)))
(let ((.def_814 (or .def_799 .def_802)))
(let ((.def_816 (and .def_814 .def_815)))
(let ((.def_818 (or .def_816 .def_817)))
(let ((.def_824 (and .def_818 .def_823)))
(let ((.def_813 (and .def_783 .def_787)))
(let ((.def_825 (and .def_813 .def_824)))
(let ((.def_852 (or .def_825 .def_851)))
(let ((.def_753 (* b.delta__AT2 .def_752)))
(let ((.def_754 (* 10.0 .def_753)))
(let ((.def_748 (* b.delta__AT2 .def_747)))
(let ((.def_749 (* 10.0 .def_748)))
(let ((.def_760 (+ .def_749 .def_754)))
(let ((.def_737 (* b.delta__AT2 b.delta__AT2)))
(let ((.def_741 (* .def_737 .def_740)))
(let ((.def_742 (* 10.0 .def_741)))
(let ((.def_761 (+ .def_742 .def_760)))
(let ((.def_744 (* (- 49.0) .def_737)))
(let ((.def_762 (+ .def_744 .def_761)))
(let ((.def_735 (* b.speed_y__AT2 b.delta__AT2)))
(let ((.def_736 (* 10.0 .def_735)))
(let ((.def_763 (+ .def_736 .def_762)))
(let ((.def_716 (* b.x__AT2 .def_670)))
(let ((.def_756 (* (- 10.0) .def_716)))
(let ((.def_764 (+ .def_756 .def_763)))
(let ((.def_758 (* 10.0 b.y__AT2)))
(let ((.def_765 (+ .def_758 .def_764)))
(let ((.def_793 (<= .def_765 0.0 )))
(let ((.def_807 (not .def_793)))
(let ((.def_791 (<= b.y__AT2 .def_716)))
(let ((.def_808 (or .def_791 .def_807)))
(let ((.def_717 (<= .def_716 b.y__AT2)))
(let ((.def_805 (not .def_717)))
(let ((.def_766 (<= 0.0 .def_765)))
(let ((.def_806 (or .def_766 .def_805)))
(let ((.def_809 (and .def_806 .def_808)))
(let ((.def_803 (or .def_800 .def_802)))
(let ((.def_804 (not .def_803)))
(let ((.def_810 (or .def_804 .def_809)))
(let ((.def_795 (not .def_766)))
(let ((.def_796 (or .def_717 .def_795)))
(let ((.def_792 (not .def_791)))
(let ((.def_794 (or .def_792 .def_793)))
(let ((.def_797 (and .def_794 .def_796)))
(let ((.def_789 (or .def_784 .def_788)))
(let ((.def_790 (not .def_789)))
(let ((.def_798 (or .def_790 .def_797)))
(let ((.def_811 (and .def_798 .def_810)))
(let ((.def_767 (and .def_717 .def_766)))
(let ((.def_812 (and .def_767 .def_811)))
(let ((.def_853 (and .def_812 .def_852)))
(let ((.def_76 (<= b.speed_loss__AT0 (/ 1 2))))
(let ((.def_73 (<= (/ 1 10) b.speed_loss__AT0)))
(let ((.def_77 (and .def_73 .def_76)))
(let ((.def_854 (and .def_77 .def_853)))
(let ((.def_313 (not b.counter.0__AT1)))
(let ((.def_727 (or b.counter.1__AT1 .def_313)))
(let ((.def_728 (or b.counter.2__AT1 .def_727)))
(let ((.def_303 (not b.counter.1__AT1)))
(let ((.def_722 (and .def_303 .def_313)))
(let ((.def_308 (not b.counter.2__AT1)))
(let ((.def_726 (or .def_308 .def_722)))
(let ((.def_729 (and .def_726 .def_728)))
(let ((.def_730 (or b.counter.3__AT1 .def_729)))
(let ((.def_723 (or b.counter.2__AT1 .def_722)))
(let ((.def_721 (or .def_303 .def_308)))
(let ((.def_724 (and .def_721 .def_723)))
(let ((.def_322 (not b.counter.3__AT1)))
(let ((.def_725 (or .def_322 .def_724)))
(let ((.def_731 (and .def_725 .def_730)))
(let ((.def_718 (and .def_77 .def_717)))
(let ((.def_713 (not b.EVENT.0__AT2)))
(let ((.def_711 (not b.EVENT.1__AT2)))
(let ((.def_714 (or .def_711 .def_713)))
(let ((.def_9 (not b.counter.0__AT2)))
(let ((.def_6 (not b.counter.1__AT2)))
(let ((.def_704 (or .def_6 .def_9)))
(let ((.def_708 (or b.counter.3__AT2 .def_704)))
(let ((.def_705 (or b.counter.2__AT2 .def_704)))
(let ((.def_4 (not b.counter.2__AT2)))
(let ((.def_703 (or .def_4 .def_9)))
(let ((.def_706 (and .def_703 .def_705)))
(let ((.def_14 (not b.counter.3__AT2)))
(let ((.def_707 (or .def_14 .def_706)))
(let ((.def_709 (and .def_707 .def_708)))
(let ((.def_715 (and .def_709 .def_714)))
(let ((.def_719 (and .def_715 .def_718)))
(let ((.def_698 (<= 0.0 b.delta__AT1)))
(let ((.def_400 (not b.EVENT.0__AT1)))
(let ((.def_398 (not b.EVENT.1__AT1)))
(let ((.def_542 (and .def_398 .def_400)))
(let ((.def_544 (not .def_542)))
(let ((.def_699 (or .def_544 .def_698)))
(let ((.def_700 (or b.EVENT.1__AT1 .def_699)))
(let ((.def_582 (= b.bool_atom__AT1 b.bool_atom__AT2)))
(let ((.def_578 (= b.counter.0__AT2 b.counter.0__AT1)))
(let ((.def_576 (= b.counter.1__AT2 b.counter.1__AT1)))
(let ((.def_574 (= b.counter.2__AT2 b.counter.2__AT1)))
(let ((.def_573 (= b.counter.3__AT2 b.counter.3__AT1)))
(let ((.def_575 (and .def_573 .def_574)))
(let ((.def_577 (and .def_575 .def_576)))
(let ((.def_579 (and .def_577 .def_578)))
(let ((.def_694 (and .def_579 .def_582)))
(let ((.def_695 (or .def_544 .def_694)))
(let ((.def_696 (or b.EVENT.1__AT1 .def_695)))
(let ((.def_682 (* (- 10.0) b.y__AT2)))
(let ((.def_423 (* b.delta__AT1 b.delta__AT1)))
(let ((.def_430 (* (- 49.0) .def_423)))
(let ((.def_686 (+ .def_430 .def_682)))
(let ((.def_421 (* b.speed_y__AT1 b.delta__AT1)))
(let ((.def_422 (* 10.0 .def_421)))
(let ((.def_687 (+ .def_422 .def_686)))
(let ((.def_444 (* 10.0 b.y__AT1)))
(let ((.def_688 (+ .def_444 .def_687)))
(let ((.def_689 (= .def_688 0.0 )))
(let ((.def_677 (* (- 5.0) b.speed_y__AT2)))
(let ((.def_461 (* (- 49.0) b.delta__AT1)))
(let ((.def_678 (+ .def_461 .def_677)))
(let ((.def_463 (* 5.0 b.speed_y__AT1)))
(let ((.def_679 (+ .def_463 .def_678)))
(let ((.def_680 (= .def_679 0.0 )))
(let ((.def_669 (* b.speed_x__AT1 b.delta__AT1)))
(let ((.def_673 (+ .def_670 .def_669)))
(let ((.def_674 (+ b.x__AT1 .def_673)))
(let ((.def_675 (= .def_674 0.0 )))
(let ((.def_568 (= b.speed_x__AT1 b.speed_x__AT2)))
(let ((.def_676 (and .def_568 .def_675)))
(let ((.def_681 (and .def_676 .def_680)))
(let ((.def_690 (and .def_681 .def_689)))
(let ((.def_691 (or .def_544 .def_690)))
(let ((.def_565 (= b.y__AT1 b.y__AT2)))
(let ((.def_562 (= b.x__AT1 b.x__AT2)))
(let ((.def_663 (and .def_562 .def_565)))
(let ((.def_664 (and .def_568 .def_663)))
(let ((.def_571 (= b.speed_y__AT1 b.speed_y__AT2)))
(let ((.def_665 (and .def_571 .def_664)))
(let ((.def_660 (= b.delta__AT1 0.0 )))
(let ((.def_661 (and .def_542 .def_660)))
(let ((.def_662 (not .def_661)))
(let ((.def_666 (or .def_662 .def_665)))
(let ((.def_667 (or b.EVENT.1__AT1 .def_666)))
(let ((.def_652 (and .def_568 .def_571)))
(let ((.def_653 (and .def_579 .def_652)))
(let ((.def_654 (or b.bool_atom__AT1 .def_653)))
(let ((.def_628 (or .def_9 b.counter.0__AT1)))
(let ((.def_627 (or b.counter.0__AT2 .def_313)))
(let ((.def_629 (and .def_627 .def_628)))
(let ((.def_630 (and .def_6 .def_629)))
(let ((.def_631 (or b.counter.1__AT1 .def_630)))
(let ((.def_626 (or b.counter.1__AT2 .def_303)))
(let ((.def_632 (and .def_626 .def_631)))
(let ((.def_643 (and .def_4 .def_632)))
(let ((.def_644 (or b.counter.2__AT1 .def_643)))
(let ((.def_638 (and .def_6 .def_313)))
(let ((.def_639 (or b.counter.1__AT1 .def_638)))
(let ((.def_640 (and .def_626 .def_639)))
(let ((.def_641 (and b.counter.2__AT2 .def_640)))
(let ((.def_642 (or .def_308 .def_641)))
(let ((.def_645 (and .def_642 .def_644)))
(let ((.def_646 (and b.counter.3__AT2 .def_645)))
(let ((.def_647 (or b.counter.3__AT1 .def_646)))
(let ((.def_633 (and b.counter.2__AT2 .def_632)))
(let ((.def_634 (or b.counter.2__AT1 .def_633)))
(let ((.def_622 (or b.counter.1__AT2 b.counter.1__AT1)))
(let ((.def_620 (and .def_6 b.counter.0__AT2)))
(let ((.def_621 (or .def_303 .def_620)))
(let ((.def_623 (and .def_621 .def_622)))
(let ((.def_624 (and .def_4 .def_623)))
(let ((.def_625 (or .def_308 .def_624)))
(let ((.def_635 (and .def_625 .def_634)))
(let ((.def_636 (and .def_14 .def_635)))
(let ((.def_637 (or .def_322 .def_636)))
(let ((.def_648 (and .def_637 .def_647)))
(let ((.def_289 (* b.speed_y__AT1 b.speed_y__AT1)))
(let ((.def_287 (* b.speed_x__AT1 b.speed_x__AT1)))
(let ((.def_612 (+ .def_287 .def_289)))
(let ((.def_275 (* (- 1.0) b.speed_loss__AT0)))
(let ((.def_276 (+ 1.0 .def_275)))
(let ((.def_292 (* .def_276 .def_276)))
(let ((.def_613 (* .def_292 .def_612)))
(let ((.def_615 (* (- 1.0) .def_613)))
(let ((.def_609 (* b.speed_y__AT2 b.speed_y__AT2)))
(let ((.def_616 (+ .def_609 .def_615)))
(let ((.def_607 (* b.speed_x__AT2 b.speed_x__AT2)))
(let ((.def_617 (+ .def_607 .def_616)))
(let ((.def_618 (= .def_617 0.0 )))
(let ((.def_600 (* b.speed_y__AT1 .def_276)))
(let ((.def_272 (* (- 2.0) b.x__AT1)))
(let ((.def_273 (* (- 1.0) .def_272)))
(let ((.def_597 (* .def_273 .def_276)))
(let ((.def_598 (* b.speed_x__AT1 .def_597)))
(let ((.def_603 (+ .def_598 .def_600)))
(let ((.def_594 (* (- 2.0) b.x__AT2)))
(let ((.def_595 (* (- 1.0) .def_594)))
(let ((.def_596 (* b.speed_x__AT2 .def_595)))
(let ((.def_604 (+ .def_596 .def_603)))
(let ((.def_605 (+ b.speed_y__AT2 .def_604)))
(let ((.def_606 (= .def_605 0.0 )))
(let ((.def_619 (and .def_606 .def_618)))
(let ((.def_649 (and .def_619 .def_648)))
(let ((.def_593 (not b.bool_atom__AT1)))
(let ((.def_650 (or .def_593 .def_649)))
(let ((.def_274 (* b.speed_x__AT1 .def_273)))
(let ((.def_588 (+ b.speed_y__AT1 .def_274)))
(let ((.def_589 (<= 0.0 .def_588)))
(let ((.def_590 (not .def_589)))
(let ((.def_357 (* (- 1.0) b.x__AT1)))
(let ((.def_403 (* b.x__AT1 .def_357)))
(let ((.def_587 (= b.y__AT1 .def_403)))
(let ((.def_591 (and .def_587 .def_590)))
(let ((.def_592 (= b.bool_atom__AT1 .def_591)))
(let ((.def_651 (and .def_592 .def_650)))
(let ((.def_655 (and .def_651 .def_654)))
(let ((.def_656 (and .def_562 .def_655)))
(let ((.def_657 (and .def_565 .def_656)))
(let ((.def_658 (or .def_542 .def_657)))
(let ((.def_659 (or b.EVENT.1__AT1 .def_658)))
(let ((.def_668 (and .def_659 .def_667)))
(let ((.def_692 (and .def_668 .def_691)))
(let ((.def_549 (= b.time__AT1 b.time__AT2)))
(let ((.def_563 (and .def_549 .def_562)))
(let ((.def_566 (and .def_563 .def_565)))
(let ((.def_569 (and .def_566 .def_568)))
(let ((.def_572 (and .def_569 .def_571)))
(let ((.def_580 (and .def_572 .def_579)))
(let ((.def_583 (and .def_580 .def_582)))
(let ((.def_584 (or .def_398 .def_583)))
(let ((.def_552 (* (- 1.0) b.time__AT2)))
(let ((.def_555 (+ b.delta__AT1 .def_552)))
(let ((.def_556 (+ b.time__AT1 .def_555)))
(let ((.def_557 (= .def_556 0.0 )))
(let ((.def_558 (or .def_544 .def_557)))
(let ((.def_559 (or b.EVENT.1__AT1 .def_558)))
(let ((.def_550 (or .def_542 .def_549)))
(let ((.def_551 (or b.EVENT.1__AT1 .def_550)))
(let ((.def_560 (and .def_551 .def_559)))
(let ((.def_585 (and .def_560 .def_584)))
(let ((.def_546 (= .def_544 b.event_is_timed__AT2)))
(let ((.def_543 (= b.event_is_timed__AT1 .def_542)))
(let ((.def_547 (and .def_543 .def_546)))
(let ((.def_586 (and .def_547 .def_585)))
(let ((.def_693 (and .def_586 .def_692)))
(let ((.def_697 (and .def_693 .def_696)))
(let ((.def_701 (and .def_697 .def_700)))
(let ((.def_702 (and .def_398 .def_701)))
(let ((.def_720 (and .def_702 .def_719)))
(let ((.def_732 (and .def_720 .def_731)))
(let ((.def_424 (* (- 1.0) b.speed_x__AT1)))
(let ((.def_425 (* b.speed_x__AT1 .def_424)))
(let ((.def_426 (* (- 1.0) .def_425)))
(let ((.def_454 (* 2.0 .def_426)))
(let ((.def_512 (* (- 1.0) .def_454)))
(let ((.def_513 (* b.delta__AT1 .def_512)))
(let ((.def_514 (* (- 5.0) .def_513)))
(let ((.def_437 (* b.speed_x__AT1 .def_357)))
(let ((.def_459 (* (- 5.0) .def_437)))
(let ((.def_519 (+ .def_459 .def_514)))
(let ((.def_432 (* b.x__AT1 .def_424)))
(let ((.def_457 (* (- 5.0) .def_432)))
(let ((.def_520 (+ .def_457 .def_519)))
(let ((.def_521 (+ .def_461 .def_520)))
(let ((.def_522 (+ .def_463 .def_521)))
(let ((.def_525 (<= 0.0 .def_522)))
(let ((.def_532 (not .def_525)))
(let ((.def_438 (* (- 1.0) .def_437)))
(let ((.def_433 (* (- 1.0) .def_432)))
(let ((.def_471 (+ .def_433 .def_438)))
(let ((.def_472 (+ b.speed_y__AT1 .def_471)))
(let ((.def_473 (<= 0.0 .def_472)))
(let ((.def_533 (or .def_473 .def_532)))
(let ((.def_523 (<= .def_522 0.0 )))
(let ((.def_487 (<= .def_472 0.0 )))
(let ((.def_488 (not .def_487)))
(let ((.def_531 (or .def_488 .def_523)))
(let ((.def_534 (and .def_531 .def_533)))
(let ((.def_503 (<= .def_425 (- (/ 49 10)))))
(let ((.def_535 (or .def_503 .def_534)))
(let ((.def_527 (not .def_523)))
(let ((.def_528 (or .def_487 .def_527)))
(let ((.def_474 (not .def_473)))
(let ((.def_526 (or .def_474 .def_525)))
(let ((.def_529 (and .def_526 .def_528)))
(let ((.def_508 (<= (- (/ 49 10)) .def_425)))
(let ((.def_530 (or .def_508 .def_529)))
(let ((.def_536 (and .def_530 .def_535)))
(let ((.def_524 (and .def_487 .def_523)))
(let ((.def_537 (and .def_524 .def_536)))
(let ((.def_455 (* b.delta__AT1 .def_454)))
(let ((.def_456 (* 5.0 .def_455)))
(let ((.def_465 (+ .def_459 .def_456)))
(let ((.def_466 (+ .def_457 .def_465)))
(let ((.def_467 (+ .def_461 .def_466)))
(let ((.def_468 (+ .def_463 .def_467)))
(let ((.def_485 (<= .def_468 0.0 )))
(let ((.def_486 (not .def_485)))
(let ((.def_506 (or .def_486 .def_487)))
(let ((.def_469 (<= 0.0 .def_468)))
(let ((.def_505 (or .def_469 .def_474)))
(let ((.def_507 (and .def_505 .def_506)))
(let ((.def_509 (or .def_507 .def_508)))
(let ((.def_470 (not .def_469)))
(let ((.def_501 (or .def_470 .def_473)))
(let ((.def_500 (or .def_485 .def_488)))
(let ((.def_502 (and .def_500 .def_501)))
(let ((.def_504 (or .def_502 .def_503)))
(let ((.def_510 (and .def_504 .def_509)))
(let ((.def_499 (and .def_469 .def_473)))
(let ((.def_511 (and .def_499 .def_510)))
(let ((.def_538 (or .def_511 .def_537)))
(let ((.def_439 (* b.delta__AT1 .def_438)))
(let ((.def_440 (* 10.0 .def_439)))
(let ((.def_434 (* b.delta__AT1 .def_433)))
(let ((.def_435 (* 10.0 .def_434)))
(let ((.def_446 (+ .def_435 .def_440)))
(let ((.def_427 (* .def_423 .def_426)))
(let ((.def_428 (* 10.0 .def_427)))
(let ((.def_447 (+ .def_428 .def_446)))
(let ((.def_448 (+ .def_430 .def_447)))
(let ((.def_449 (+ .def_422 .def_448)))
(let ((.def_442 (* (- 10.0) .def_403)))
(let ((.def_450 (+ .def_442 .def_449)))
(let ((.def_451 (+ .def_444 .def_450)))
(let ((.def_479 (<= .def_451 0.0 )))
(let ((.def_493 (not .def_479)))
(let ((.def_477 (<= b.y__AT1 .def_403)))
(let ((.def_494 (or .def_477 .def_493)))
(let ((.def_404 (<= .def_403 b.y__AT1)))
(let ((.def_491 (not .def_404)))
(let ((.def_452 (<= 0.0 .def_451)))
(let ((.def_492 (or .def_452 .def_491)))
(let ((.def_495 (and .def_492 .def_494)))
(let ((.def_489 (or .def_486 .def_488)))
(let ((.def_490 (not .def_489)))
(let ((.def_496 (or .def_490 .def_495)))
(let ((.def_481 (not .def_452)))
(let ((.def_482 (or .def_404 .def_481)))
(let ((.def_478 (not .def_477)))
(let ((.def_480 (or .def_478 .def_479)))
(let ((.def_483 (and .def_480 .def_482)))
(let ((.def_475 (or .def_470 .def_474)))
(let ((.def_476 (not .def_475)))
(let ((.def_484 (or .def_476 .def_483)))
(let ((.def_497 (and .def_484 .def_496)))
(let ((.def_453 (and .def_404 .def_452)))
(let ((.def_498 (and .def_453 .def_497)))
(let ((.def_539 (and .def_498 .def_538)))
(let ((.def_540 (and .def_77 .def_539)))
(let ((.def_45 (not b.counter.0__AT0)))
(let ((.def_413 (or b.counter.1__AT0 .def_45)))
(let ((.def_414 (or b.counter.2__AT0 .def_413)))
(let ((.def_48 (not b.counter.2__AT0)))
(let ((.def_43 (not b.counter.1__AT0)))
(let ((.def_46 (and .def_43 .def_45)))
(let ((.def_412 (or .def_46 .def_48)))
(let ((.def_415 (and .def_412 .def_414)))
(let ((.def_416 (or b.counter.3__AT0 .def_415)))
(let ((.def_409 (or .def_46 b.counter.2__AT0)))
(let ((.def_408 (or .def_43 .def_48)))
(let ((.def_410 (and .def_408 .def_409)))
(let ((.def_51 (not b.counter.3__AT0)))
(let ((.def_411 (or .def_51 .def_410)))
(let ((.def_417 (and .def_411 .def_416)))
(let ((.def_405 (and .def_77 .def_404)))
(let ((.def_401 (or .def_398 .def_400)))
(let ((.def_391 (or .def_303 .def_313)))
(let ((.def_395 (or b.counter.3__AT1 .def_391)))
(let ((.def_392 (or b.counter.2__AT1 .def_391)))
(let ((.def_390 (or .def_308 .def_313)))
(let ((.def_393 (and .def_390 .def_392)))
(let ((.def_394 (or .def_322 .def_393)))
(let ((.def_396 (and .def_394 .def_395)))
(let ((.def_402 (and .def_396 .def_401)))
(let ((.def_406 (and .def_402 .def_405)))
(let ((.def_385 (<= 0.0 b.delta__AT0)))
(let ((.def_64 (not b.EVENT.0__AT0)))
(let ((.def_62 (not b.EVENT.1__AT0)))
(let ((.def_211 (and .def_62 .def_64)))
(let ((.def_213 (not .def_211)))
(let ((.def_386 (or .def_213 .def_385)))
(let ((.def_387 (or b.EVENT.1__AT0 .def_386)))
(let ((.def_256 (= b.bool_atom__AT0 b.bool_atom__AT1)))
(let ((.def_251 (= b.counter.0__AT0 b.counter.0__AT1)))
(let ((.def_248 (= b.counter.1__AT0 b.counter.1__AT1)))
(let ((.def_245 (= b.counter.2__AT0 b.counter.2__AT1)))
(let ((.def_243 (= b.counter.3__AT0 b.counter.3__AT1)))
(let ((.def_246 (and .def_243 .def_245)))
(let ((.def_249 (and .def_246 .def_248)))
(let ((.def_252 (and .def_249 .def_251)))
(let ((.def_381 (and .def_252 .def_256)))
(let ((.def_382 (or .def_213 .def_381)))
(let ((.def_383 (or b.EVENT.1__AT0 .def_382)))
(let ((.def_370 (* (- 10.0) b.y__AT1)))
(let ((.def_85 (* b.delta__AT0 b.delta__AT0)))
(let ((.def_94 (* (- 49.0) .def_85)))
(let ((.def_373 (+ .def_94 .def_370)))
(let ((.def_83 (* b.speed_y__AT0 b.delta__AT0)))
(let ((.def_84 (* 10.0 .def_83)))
(let ((.def_374 (+ .def_84 .def_373)))
(let ((.def_109 (* 10.0 b.y__AT0)))
(let ((.def_375 (+ .def_109 .def_374)))
(let ((.def_376 (= .def_375 0.0 )))
(let ((.def_364 (* (- 5.0) b.speed_y__AT1)))
(let ((.def_128 (* (- 49.0) b.delta__AT0)))
(let ((.def_365 (+ .def_128 .def_364)))
(let ((.def_130 (* 5.0 b.speed_y__AT0)))
(let ((.def_366 (+ .def_130 .def_365)))
(let ((.def_367 (= .def_366 0.0 )))
(let ((.def_356 (* b.speed_x__AT0 b.delta__AT0)))
(let ((.def_360 (+ .def_357 .def_356)))
(let ((.def_361 (+ b.x__AT0 .def_360)))
(let ((.def_362 (= .def_361 0.0 )))
(let ((.def_237 (= b.speed_x__AT0 b.speed_x__AT1)))
(let ((.def_363 (and .def_237 .def_362)))
(let ((.def_368 (and .def_363 .def_367)))
(let ((.def_377 (and .def_368 .def_376)))
(let ((.def_378 (or .def_213 .def_377)))
(let ((.def_234 (= b.y__AT0 b.y__AT1)))
(let ((.def_231 (= b.x__AT0 b.x__AT1)))
(let ((.def_350 (and .def_231 .def_234)))
(let ((.def_351 (and .def_237 .def_350)))
(let ((.def_240 (= b.speed_y__AT0 b.speed_y__AT1)))
(let ((.def_352 (and .def_240 .def_351)))
(let ((.def_347 (= b.delta__AT0 0.0 )))
(let ((.def_348 (and .def_211 .def_347)))
(let ((.def_349 (not .def_348)))
(let ((.def_353 (or .def_349 .def_352)))
(let ((.def_354 (or b.EVENT.1__AT0 .def_353)))
(let ((.def_339 (and .def_237 .def_240)))
(let ((.def_340 (and .def_252 .def_339)))
(let ((.def_341 (or b.bool_atom__AT0 .def_340)))
(let ((.def_314 (or b.counter.0__AT0 .def_313)))
(let ((.def_312 (or .def_45 b.counter.0__AT1)))
(let ((.def_315 (and .def_312 .def_314)))
(let ((.def_316 (and .def_303 .def_315)))
(let ((.def_317 (or b.counter.1__AT0 .def_316)))
(let ((.def_311 (or .def_43 b.counter.1__AT1)))
(let ((.def_318 (and .def_311 .def_317)))
(let ((.def_330 (and .def_308 .def_318)))
(let ((.def_331 (or b.counter.2__AT0 .def_330)))
(let ((.def_325 (and .def_45 .def_303)))
(let ((.def_326 (or b.counter.1__AT0 .def_325)))
(let ((.def_327 (and .def_311 .def_326)))
(let ((.def_328 (and b.counter.2__AT1 .def_327)))
(let ((.def_329 (or .def_48 .def_328)))
(let ((.def_332 (and .def_329 .def_331)))
(let ((.def_333 (and b.counter.3__AT1 .def_332)))
(let ((.def_334 (or b.counter.3__AT0 .def_333)))
(let ((.def_319 (and b.counter.2__AT1 .def_318)))
(let ((.def_320 (or b.counter.2__AT0 .def_319)))
(let ((.def_306 (or b.counter.1__AT0 b.counter.1__AT1)))
(let ((.def_304 (and b.counter.0__AT1 .def_303)))
(let ((.def_305 (or .def_43 .def_304)))
(let ((.def_307 (and .def_305 .def_306)))
(let ((.def_309 (and .def_307 .def_308)))
(let ((.def_310 (or .def_48 .def_309)))
(let ((.def_321 (and .def_310 .def_320)))
(let ((.def_323 (and .def_321 .def_322)))
(let ((.def_324 (or .def_51 .def_323)))
(let ((.def_335 (and .def_324 .def_334)))
(let ((.def_294 (* b.speed_y__AT0 b.speed_y__AT0)))
(let ((.def_293 (* b.speed_x__AT0 b.speed_x__AT0)))
(let ((.def_295 (+ .def_293 .def_294)))
(let ((.def_296 (* .def_292 .def_295)))
(let ((.def_298 (* (- 1.0) .def_296)))
(let ((.def_299 (+ .def_289 .def_298)))
(let ((.def_300 (+ .def_287 .def_299)))
(let ((.def_301 (= .def_300 0.0 )))
(let ((.def_280 (* b.speed_y__AT0 .def_276)))
(let ((.def_263 (* (- 2.0) b.x__AT0)))
(let ((.def_264 (* (- 1.0) .def_263)))
(let ((.def_277 (* .def_264 .def_276)))
(let ((.def_278 (* b.speed_x__AT0 .def_277)))
(let ((.def_283 (+ .def_278 .def_280)))
(let ((.def_284 (+ .def_274 .def_283)))
(let ((.def_285 (+ b.speed_y__AT1 .def_284)))
(let ((.def_286 (= .def_285 0.0 )))
(let ((.def_302 (and .def_286 .def_301)))
(let ((.def_336 (and .def_302 .def_335)))
(let ((.def_271 (not b.bool_atom__AT0)))
(let ((.def_337 (or .def_271 .def_336)))
(let ((.def_265 (* b.speed_x__AT0 .def_264)))
(let ((.def_266 (+ b.speed_y__AT0 .def_265)))
(let ((.def_267 (<= 0.0 .def_266)))
(let ((.def_268 (not .def_267)))
(let ((.def_68 (* (- 1.0) b.x__AT0)))
(let ((.def_69 (* b.x__AT0 .def_68)))
(let ((.def_261 (= b.y__AT0 .def_69)))
(let ((.def_269 (and .def_261 .def_268)))
(let ((.def_270 (= b.bool_atom__AT0 .def_269)))
(let ((.def_338 (and .def_270 .def_337)))
(let ((.def_342 (and .def_338 .def_341)))
(let ((.def_343 (and .def_231 .def_342)))
(let ((.def_344 (and .def_234 .def_343)))
(let ((.def_345 (or .def_211 .def_344)))
(let ((.def_346 (or b.EVENT.1__AT0 .def_345)))
(let ((.def_355 (and .def_346 .def_354)))
(let ((.def_379 (and .def_355 .def_378)))
(let ((.def_218 (= b.time__AT0 b.time__AT1)))
(let ((.def_232 (and .def_218 .def_231)))
(let ((.def_235 (and .def_232 .def_234)))
(let ((.def_238 (and .def_235 .def_237)))
(let ((.def_241 (and .def_238 .def_240)))
(let ((.def_253 (and .def_241 .def_252)))
(let ((.def_257 (and .def_253 .def_256)))
(let ((.def_258 (or .def_62 .def_257)))
(let ((.def_221 (* (- 1.0) b.time__AT1)))
(let ((.def_224 (+ b.delta__AT0 .def_221)))
(let ((.def_225 (+ b.time__AT0 .def_224)))
(let ((.def_226 (= .def_225 0.0 )))
(let ((.def_227 (or .def_213 .def_226)))
(let ((.def_228 (or b.EVENT.1__AT0 .def_227)))
(let ((.def_219 (or .def_211 .def_218)))
(let ((.def_220 (or b.EVENT.1__AT0 .def_219)))
(let ((.def_229 (and .def_220 .def_228)))
(let ((.def_259 (and .def_229 .def_258)))
(let ((.def_215 (= .def_213 b.event_is_timed__AT1)))
(let ((.def_212 (= b.event_is_timed__AT0 .def_211)))
(let ((.def_216 (and .def_212 .def_215)))
(let ((.def_260 (and .def_216 .def_259)))
(let ((.def_380 (and .def_260 .def_379)))
(let ((.def_384 (and .def_380 .def_383)))
(let ((.def_388 (and .def_384 .def_387)))
(let ((.def_389 (and .def_62 .def_388)))
(let ((.def_407 (and .def_389 .def_406)))
(let ((.def_418 (and .def_407 .def_417)))
(let ((.def_86 (* (- 1.0) b.speed_x__AT0)))
(let ((.def_87 (* b.speed_x__AT0 .def_86)))
(let ((.def_88 (* (- 1.0) .def_87)))
(let ((.def_119 (* 2.0 .def_88)))
(let ((.def_181 (* (- 1.0) .def_119)))
(let ((.def_182 (* b.delta__AT0 .def_181)))
(let ((.def_183 (* (- 5.0) .def_182)))
(let ((.def_101 (* b.speed_x__AT0 .def_68)))
(let ((.def_126 (* (- 5.0) .def_101)))
(let ((.def_188 (+ .def_126 .def_183)))
(let ((.def_96 (* b.x__AT0 .def_86)))
(let ((.def_124 (* (- 5.0) .def_96)))
(let ((.def_189 (+ .def_124 .def_188)))
(let ((.def_190 (+ .def_128 .def_189)))
(let ((.def_191 (+ .def_130 .def_190)))
(let ((.def_194 (<= 0.0 .def_191)))
(let ((.def_201 (not .def_194)))
(let ((.def_102 (* (- 1.0) .def_101)))
(let ((.def_97 (* (- 1.0) .def_96)))
(let ((.def_138 (+ .def_97 .def_102)))
(let ((.def_139 (+ b.speed_y__AT0 .def_138)))
(let ((.def_140 (<= 0.0 .def_139)))
(let ((.def_202 (or .def_140 .def_201)))
(let ((.def_192 (<= .def_191 0.0 )))
(let ((.def_154 (<= .def_139 0.0 )))
(let ((.def_155 (not .def_154)))
(let ((.def_200 (or .def_155 .def_192)))
(let ((.def_203 (and .def_200 .def_202)))
(let ((.def_172 (<= .def_87 (- (/ 49 10)))))
(let ((.def_204 (or .def_172 .def_203)))
(let ((.def_196 (not .def_192)))
(let ((.def_197 (or .def_154 .def_196)))
(let ((.def_141 (not .def_140)))
(let ((.def_195 (or .def_141 .def_194)))
(let ((.def_198 (and .def_195 .def_197)))
(let ((.def_177 (<= (- (/ 49 10)) .def_87)))
(let ((.def_199 (or .def_177 .def_198)))
(let ((.def_205 (and .def_199 .def_204)))
(let ((.def_193 (and .def_154 .def_192)))
(let ((.def_206 (and .def_193 .def_205)))
(let ((.def_120 (* b.delta__AT0 .def_119)))
(let ((.def_122 (* 5.0 .def_120)))
(let ((.def_132 (+ .def_126 .def_122)))
(let ((.def_133 (+ .def_124 .def_132)))
(let ((.def_134 (+ .def_128 .def_133)))
(let ((.def_135 (+ .def_130 .def_134)))
(let ((.def_152 (<= .def_135 0.0 )))
(let ((.def_153 (not .def_152)))
(let ((.def_175 (or .def_153 .def_154)))
(let ((.def_136 (<= 0.0 .def_135)))
(let ((.def_174 (or .def_136 .def_141)))
(let ((.def_176 (and .def_174 .def_175)))
(let ((.def_178 (or .def_176 .def_177)))
(let ((.def_137 (not .def_136)))
(let ((.def_168 (or .def_137 .def_140)))
(let ((.def_167 (or .def_152 .def_155)))
(let ((.def_169 (and .def_167 .def_168)))
(let ((.def_173 (or .def_169 .def_172)))
(let ((.def_179 (and .def_173 .def_178)))
(let ((.def_166 (and .def_136 .def_140)))
(let ((.def_180 (and .def_166 .def_179)))
(let ((.def_207 (or .def_180 .def_206)))
(let ((.def_103 (* b.delta__AT0 .def_102)))
(let ((.def_104 (* 10.0 .def_103)))
(let ((.def_98 (* b.delta__AT0 .def_97)))
(let ((.def_99 (* 10.0 .def_98)))
(let ((.def_111 (+ .def_99 .def_104)))
(let ((.def_89 (* .def_85 .def_88)))
(let ((.def_90 (* 10.0 .def_89)))
(let ((.def_112 (+ .def_90 .def_111)))
(let ((.def_113 (+ .def_94 .def_112)))
(let ((.def_114 (+ .def_84 .def_113)))
(let ((.def_107 (* (- 10.0) .def_69)))
(let ((.def_115 (+ .def_107 .def_114)))
(let ((.def_116 (+ .def_109 .def_115)))
(let ((.def_146 (<= .def_116 0.0 )))
(let ((.def_160 (not .def_146)))
(let ((.def_144 (<= b.y__AT0 .def_69)))
(let ((.def_161 (or .def_144 .def_160)))
(let ((.def_70 (<= .def_69 b.y__AT0)))
(let ((.def_158 (not .def_70)))
(let ((.def_117 (<= 0.0 .def_116)))
(let ((.def_159 (or .def_117 .def_158)))
(let ((.def_162 (and .def_159 .def_161)))
(let ((.def_156 (or .def_153 .def_155)))
(let ((.def_157 (not .def_156)))
(let ((.def_163 (or .def_157 .def_162)))
(let ((.def_148 (not .def_117)))
(let ((.def_149 (or .def_70 .def_148)))
(let ((.def_145 (not .def_144)))
(let ((.def_147 (or .def_145 .def_146)))
(let ((.def_150 (and .def_147 .def_149)))
(let ((.def_142 (or .def_137 .def_141)))
(let ((.def_143 (not .def_142)))
(let ((.def_151 (or .def_143 .def_150)))
(let ((.def_164 (and .def_151 .def_163)))
(let ((.def_118 (and .def_70 .def_117)))
(let ((.def_165 (and .def_118 .def_164)))
(let ((.def_208 (and .def_165 .def_207)))
(let ((.def_209 (and .def_77 .def_208)))
(let ((.def_78 (and .def_70 .def_77)))
(let ((.def_65 (or .def_62 .def_64)))
(let ((.def_55 (or .def_43 .def_45)))
(let ((.def_59 (or b.counter.3__AT0 .def_55)))
(let ((.def_56 (or b.counter.2__AT0 .def_55)))
(let ((.def_54 (or .def_45 .def_48)))
(let ((.def_57 (and .def_54 .def_56)))
(let ((.def_58 (or .def_51 .def_57)))
(let ((.def_60 (and .def_58 .def_59)))
(let ((.def_66 (and .def_60 .def_65)))
(let ((.def_79 (and .def_66 .def_78)))
(let ((.def_49 (and .def_46 .def_48)))
(let ((.def_52 (and .def_49 .def_51)))
(let ((.def_40 (= b.speed_y__AT0 1.0 )))
(let ((.def_37 (= b.speed_x__AT0 1.0 )))
(let ((.def_33 (= b.y__AT0 10.0 )))
(let ((.def_29 (= b.x__AT0 0.0 )))
(let ((.def_25 (= b.time__AT0 0.0 )))
(let ((.def_27 (and .def_25 b.event_is_timed__AT0)))
(let ((.def_30 (and .def_27 .def_29)))
(let ((.def_34 (and .def_30 .def_33)))
(let ((.def_38 (and .def_34 .def_37)))
(let ((.def_41 (and .def_38 .def_40)))
(let ((.def_53 (and .def_41 .def_52)))
(let ((.def_80 (and .def_53 .def_79)))
(let ((.def_17 (or b.counter.1__AT2 .def_9)))
(let ((.def_18 (or b.counter.2__AT2 .def_17)))
(let ((.def_10 (and .def_6 .def_9)))
(let ((.def_16 (or .def_4 .def_10)))
(let ((.def_19 (and .def_16 .def_18)))
(let ((.def_20 (or b.counter.3__AT2 .def_19)))
(let ((.def_11 (or b.counter.2__AT2 .def_10)))
(let ((.def_7 (or .def_4 .def_6)))
(let ((.def_12 (and .def_7 .def_11)))
(let ((.def_15 (or .def_12 .def_14)))
(let ((.def_21 (and .def_15 .def_20)))
(let ((.def_22 (not .def_21)))
(let ((.def_81 (and .def_22 .def_80)))
(let ((.def_210 (and .def_81 .def_209)))
(let ((.def_419 (and .def_210 .def_418)))
(let ((.def_541 (and .def_419 .def_540)))
(let ((.def_733 (and .def_541 .def_732)))
(let ((.def_855 (and .def_733 .def_854)))
.def_855))))))))))))))))))))))))))))))))))))))))))))))))))))))))))))))))))))))))))))))))))))))))))))))))))))))))))))))))))))))))))))))))))))))))))))))))))))))))))))))))))))))))))))))))))))))))))))))))))))))))))))))))))))))))))))))))))))))))))))))))))))))))))))))))))))))))))))))))))))))))))))))))))))))))))))))))))))))))))))))))))))))))))))))))))))))))))))))))))))))))))))))))))))))))))))))))))))))))))))))))))))))))))))))))))))))))))))))))))))))))))))))))))))))))))))))))))))))))))))))))))))))))))))))))))))))))))))))))))))))))))))))))))))))))))))))))))))))))))))))))))))))))))))))))))))))))))))))))))))))))))))))))))))))))))))))))))))))))))))))))))))))))))))))))))))))))))))))))))))))))))))))))))))))))))))))))))))))))))))))))))))))
(check-sat)
(exit)
